# Solution for model P6
# Objective value = 26268417.1152519
vessel1 2.9560616517138254e+01
vessel2 6.8265470439383478e+01
trips(1,1) 2.8571428571428572e+02
trips(2,1) 0
trips(3,1) 2.8571428571428572e+02
trips(4,1) 0
trips(5,1) 0
trips(6,1) 0
trips(7,1) 0
trips(8,1) 0
trips(9,1) 0
trips(10,1) 0
trips(11,1) 0
trips(12,1) 0
trips(6,2) 0
trips(7,2) 0
trips(8,2) 2.8571428571428572e+02
trips(9,2) 2.8571428571428572e+02
trips(10,2) 4.2857142857142856e+02
trips(11,2) 0
trips(12,2) 0
dLoaded(1) 6000000
dLoaded(2) 1.0828571428571427e+07
dEmpty(1) 1.4285714285714287e+05
dEmpty(2) 5.7142857142857148e+05
load(Mars,Wheat) 30000
load(Mars,Corn) 20000
load(Sky,Wheat) 20000
load(Moon,Corn) 20000
